c strEdges: 189  randomEdges: 441 
c degrees:  2  3 
c girth: 10 max: 8.032766  
c Hgirth mixed MAXCUT instance
c generated from an undirected graph
c to solve unweighted MaxCut
p cnf 140 1260
112 35 0
-112 -35 0
112 110 0
-112 -110 0
112 12 0
-112 -12 0
120 12 0
-120 -12 0
120 66 0
-120 -66 0
120 140 0
-120 -140 0
5 119 0
-5 -119 0
5 79 0
-5 -79 0
5 76 0
-5 -76 0
13 39 0
-13 -39 0
13 43 0
-13 -43 0
13 130 0
-13 -130 0
10 58 0
-10 -58 0
10 3 0
-10 -3 0
10 16 0
-10 -16 0
133 30 0
-133 -30 0
133 53 0
-133 -53 0
128 85 0
-128 -85 0
128 90 0
-128 -90 0
128 76 0
-128 -76 0
33 79 0
-33 -79 0
33 35 0
-33 -35 0
113 135 0
-113 -135 0
113 20 0
-113 -20 0
113 97 0
-113 -97 0
23 48 0
-23 -48 0
23 78 0
-23 -78 0
23 8 0
-23 -8 0
37 115 0
-37 -115 0
37 124 0
-37 -124 0
37 100 0
-37 -100 0
105 124 0
-105 -124 0
105 4 0
-105 -4 0
105 137 0
-105 -137 0
72 43 0
-72 -43 0
72 71 0
-72 -71 0
72 91 0
-72 -91 0
32 96 0
-32 -96 0
32 92 0
-32 -92 0
32 42 0
-32 -42 0
69 38 0
-69 -38 0
69 91 0
-69 -91 0
69 80 0
-69 -80 0
14 118 0
-14 -118 0
14 85 0
-14 -85 0
31 65 0
-31 -65 0
31 121 0
-31 -121 0
116 42 0
-116 -42 0
116 8 0
-116 -8 0
116 27 0
-116 -27 0
73 53 0
-73 -53 0
73 1 0
-73 -1 0
129 50 0
-129 -50 0
129 93 0
-129 -93 0
103 60 0
-103 -60 0
103 65 0
-103 -65 0
86 138 0
-86 -138 0
86 38 0
-86 -38 0
86 119 0
-86 -119 0
68 139 0
-68 -139 0
68 3 0
-68 -3 0
68 38 0
-68 -38 0
29 16 0
-29 -16 0
29 48 0
-29 -48 0
29 79 0
-29 -79 0
49 46 0
-49 -46 0
49 94 0
-49 -94 0
49 136 0
-49 -136 0
6 122 0
-6 -122 0
6 80 0
-6 -80 0
6 99 0
-6 -99 0
131 92 0
-131 -92 0
131 111 0
-131 -111 0
56 20 0
-56 -20 0
56 35 0
-56 -35 0
127 76 0
-127 -76 0
127 94 0
-127 -94 0
127 92 0
-127 -92 0
117 130 0
-117 -130 0
117 65 0
-117 -65 0
117 75 0
-117 -75 0
98 22 0
-98 -22 0
98 125 0
-98 -125 0
98 60 0
-98 -60 0
83 9 0
-83 -9 0
83 118 0
-83 -118 0
62 97 0
-62 -97 0
62 126 0
-62 -126 0
62 54 0
-62 -54 0
51 137 0
-51 -137 0
51 21 0
-51 -21 0
51 20 0
-51 -20 0
24 111 0
-24 -111 0
24 58 0
-24 -58 0
88 3 0
-88 -3 0
88 61 0
-88 -61 0
88 81 0
-88 -81 0
89 4 0
-89 -4 0
89 136 0
-89 -136 0
89 15 0
-89 -15 0
123 71 0
-123 -71 0
123 58 0
-123 -58 0
101 93 0
-101 -93 0
101 16 0
-101 -16 0
44 91 0
-44 -91 0
44 115 0
-44 -115 0
44 27 0
-44 -27 0
55 17 0
-55 -17 0
55 122 0
-55 -122 0
55 90 0
-55 -90 0
95 1 0
-95 -1 0
95 97 0
-95 -97 0
95 96 0
-95 -96 0
109 63 0
-109 -63 0
109 39 0
-109 -39 0
114 66 0
-114 -66 0
114 93 0
-114 -93 0
114 1 0
-114 -1 0
87 99 0
-87 -99 0
87 111 0
-87 -111 0
77 110 0
-77 -110 0
77 15 0
-77 -15 0
77 19 0
-77 -19 0
107 106 0
-107 -106 0
107 46 0
-107 -46 0
34 54 0
-34 -54 0
34 60 0
-34 -60 0
34 115 0
-34 -115 0
25 90 0
-25 -90 0
25 30 0
-25 -30 0
25 22 0
-25 -22 0
45 40 0
-45 -40 0
45 9 0
-45 -9 0
45 43 0
-45 -43 0
64 75 0
-64 -75 0
64 118 0
-64 -118 0
64 50 0
-64 -50 0
7 136 0
-7 -136 0
7 53 0
-7 -53 0
7 71 0
-7 -71 0
28 21 0
-28 -21 0
28 130 0
-28 -130 0
104 27 0
-104 -27 0
104 50 0
-104 -50 0
104 134 0
-104 -134 0
18 140 0
-18 -140 0
18 9 0
-18 -9 0
18 124 0
-18 -124 0
84 121 0
-84 -121 0
84 99 0
-84 -99 0
84 19 0
-84 -19 0
70 80 0
-70 -80 0
70 46 0
-70 -46 0
70 66 0
-70 -66 0
11 100 0
-11 -100 0
11 59 0
-11 -59 0
11 17 0
-11 -17 0
74 125 0
-74 -125 0
74 63 0
-74 -63 0
132 59 0
-132 -59 0
132 135 0
-132 -135 0
132 81 0
-132 -81 0
57 61 0
-57 -61 0
57 22 0
-57 -22 0
57 41 0
-57 -41 0
47 41 0
-47 -41 0
47 12 0
-47 -12 0
47 138 0
-47 -138 0
102 81 0
-102 -81 0
102 75 0
-102 -75 0
67 78 0
-67 -78 0
67 30 0
-67 -30 0
67 40 0
-67 -40 0
52 126 0
-52 -126 0
52 138 0
-52 -138 0
52 40 0
-52 -40 0
108 15 0
-108 -15 0
108 139 0
-108 -139 0
108 85 0
-108 -85 0
82 134 0
-82 -134 0
82 63 0
-82 -63 0
82 110 0
-82 -110 0
36 8 0
-36 -8 0
36 106 0
-36 -106 0
36 21 0
-36 -21 0
26 19 0
-26 -19 0
26 78 0
-26 -78 0
2 94 0
-2 -94 0
2 39 0
-2 -39 0
33 60 0
-33 -60 0
37 121 0
-37 -121 0
72 3 0
-72 -3 0
31 2 0
-31 -2 0
133 23 0
-133 -23 0
28 27 0
-28 -27 0
27 15 0
-27 -15 0
123 17 0
-123 -17 0
29 46 0
-29 -46 0
77 22 0
-77 -22 0
72 42 0
-72 -42 0
31 130 0
-31 -130 0
36 2 0
-36 -2 0
13 90 0
-13 -90 0
23 115 0
-23 -115 0
36 85 0
-36 -85 0
60 61 0
-60 -61 0
5 127 0
-5 -127 0
92 140 0
-92 -140 0
72 135 0
-72 -135 0
128 37 0
-128 -37 0
52 20 0
-52 -20 0
86 95 0
-86 -95 0
36 54 0
-36 -54 0
88 93 0
-88 -93 0
49 70 0
-49 -70 0
4 121 0
-4 -121 0
44 126 0
-44 -126 0
111 19 0
-111 -19 0
25 115 0
-25 -115 0
14 64 0
-14 -64 0
107 137 0
-107 -137 0
105 57 0
-105 -57 0
101 17 0
-101 -17 0
111 8 0
-111 -8 0
6 4 0
-6 -4 0
97 100 0
-97 -100 0
108 54 0
-108 -54 0
57 36 0
-57 -36 0
13 61 0
-13 -61 0
16 92 0
-16 -92 0
68 101 0
-68 -101 0
85 40 0
-85 -40 0
27 61 0
-27 -61 0
123 12 0
-123 -12 0
64 132 0
-64 -132 0
35 124 0
-35 -124 0
46 63 0
-46 -63 0
42 91 0
-42 -91 0
75 81 0
-75 -81 0
80 78 0
-80 -78 0
119 76 0
-119 -76 0
129 102 0
-129 -102 0
112 41 0
-112 -41 0
92 3 0
-92 -3 0
39 96 0
-39 -96 0
128 86 0
-128 -86 0
33 55 0
-33 -55 0
86 7 0
-86 -7 0
72 66 0
-72 -66 0
82 91 0
-82 -91 0
90 40 0
-90 -40 0
88 134 0
-88 -134 0
14 57 0
-14 -57 0
40 8 0
-40 -8 0
57 20 0
-57 -20 0
128 135 0
-128 -135 0
13 101 0
-13 -101 0
2 19 0
-2 -19 0
113 15 0
-113 -15 0
88 126 0
-88 -126 0
104 19 0
-104 -19 0
124 22 0
-124 -22 0
37 80 0
-37 -80 0
105 14 0
-105 -14 0
131 83 0
-131 -83 0
67 93 0
-67 -93 0
35 63 0
-35 -63 0
135 41 0
-135 -41 0
13 21 0
-13 -21 0
104 20 0
-104 -20 0
25 27 0
-25 -27 0
50 80 0
-50 -80 0
119 130 0
-119 -130 0
88 9 0
-88 -9 0
87 102 0
-87 -102 0
6 96 0
-6 -96 0
63 75 0
-63 -75 0
139 81 0
-139 -81 0
102 27 0
-102 -27 0
105 96 0
-105 -96 0
83 27 0
-83 -27 0
129 1 0
-129 -1 0
104 11 0
-104 -11 0
111 61 0
-111 -61 0
49 25 0
-49 -25 0
70 96 0
-70 -96 0
42 71 0
-42 -71 0
98 111 0
-98 -111 0
24 54 0
-24 -54 0
49 137 0
-49 -137 0
133 79 0
-133 -79 0
135 136 0
-135 -136 0
7 46 0
-7 -46 0
56 48 0
-56 -48 0
31 67 0
-31 -67 0
105 21 0
-105 -21 0
12 121 0
-12 -121 0
48 139 0
-48 -139 0
52 9 0
-52 -9 0
85 138 0
-85 -138 0
9 111 0
-9 -111 0
7 9 0
-7 -9 0
86 94 0
-86 -94 0
10 14 0
-10 -14 0
64 53 0
-64 -53 0
98 71 0
-98 -71 0
131 12 0
-131 -12 0
113 18 0
-113 -18 0
72 49 0
-72 -49 0
28 19 0
-28 -19 0
74 97 0
-74 -97 0
52 12 0
-52 -12 0
33 32 0
-33 -32 0
5 103 0
-5 -103 0
76 63 0
-76 -63 0
112 71 0
-112 -71 0
88 46 0
-88 -46 0
117 138 0
-117 -138 0
49 106 0
-49 -106 0
116 129 0
-116 -129 0
26 137 0
-26 -137 0
131 89 0
-131 -89 0
67 90 0
-67 -90 0
10 44 0
-10 -44 0
76 21 0
-76 -21 0
23 114 0
-23 -114 0
37 52 0
-37 -52 0
52 46 0
-52 -46 0
37 68 0
-37 -68 0
28 61 0
-28 -61 0
29 60 0
-29 -60 0
129 126 0
-129 -126 0
68 9 0
-68 -9 0
72 47 0
-72 -47 0
117 119 0
-117 -119 0
4 66 0
-4 -66 0
32 64 0
-32 -64 0
97 99 0
-97 -99 0
37 57 0
-37 -57 0
5 138 0
-5 -138 0
33 94 0
-33 -94 0
31 47 0
-31 -47 0
128 73 0
-128 -73 0
107 118 0
-107 -118 0
32 65 0
-32 -65 0
31 66 0
-31 -66 0
96 63 0
-96 -63 0
13 27 0
-13 -27 0
98 100 0
-98 -100 0
88 58 0
-88 -58 0
67 135 0
-67 -135 0
7 106 0
-7 -106 0
107 84 0
-107 -84 0
18 66 0
-18 -66 0
115 80 0
-115 -80 0
129 97 0
-129 -97 0
52 53 0
-52 -53 0
120 90 0
-120 -90 0
109 34 0
-109 -34 0
87 35 0
-87 -35 0
76 22 0
-76 -22 0
32 81 0
-32 -81 0
95 57 0
-95 -57 0
18 137 0
-18 -137 0
17 41 0
-17 -41 0
102 50 0
-102 -50 0
91 125 0
-91 -125 0
127 109 0
-127 -109 0
129 42 0
-129 -42 0
139 15 0
-139 -15 0
116 99 0
-116 -99 0
77 2 0
-77 -2 0
127 45 0
-127 -45 0
44 135 0
-44 -135 0
31 39 0
-31 -39 0
37 81 0
-37 -81 0
12 1 0
-12 -1 0
129 77 0
-129 -77 0
45 61 0
-45 -61 0
29 39 0
-29 -39 0
117 28 0
-117 -28 0
43 17 0
-43 -17 0
33 78 0
-33 -78 0
128 115 0
-128 -115 0
70 94 0
-70 -94 0
77 16 0
-77 -16 0
33 77 0
-33 -77 0
56 76 0
-56 -76 0
6 114 0
-6 -114 0
101 135 0
-101 -135 0
42 60 0
-42 -60 0
47 21 0
-47 -21 0
39 41 0
-39 -41 0
124 100 0
-124 -100 0
7 70 0
-7 -70 0
114 48 0
-114 -48 0
37 8 0
-37 -8 0
69 43 0
-69 -43 0
1 140 0
-1 -140 0
54 41 0
-54 -41 0
67 15 0
-67 -15 0
131 98 0
-131 -98 0
63 125 0
-63 -125 0
107 61 0
-107 -61 0
1 121 0
-1 -121 0
118 41 0
-118 -41 0
6 45 0
-6 -45 0
37 35 0
-37 -35 0
65 130 0
-65 -130 0
82 39 0
-82 -39 0
139 91 0
-139 -91 0
32 52 0
-32 -52 0
51 135 0
-51 -135 0
41 134 0
-41 -134 0
7 16 0
-7 -16 0
40 15 0
-40 -15 0
67 59 0
-67 -59 0
83 124 0
-83 -124 0
73 3 0
-73 -3 0
131 35 0
-131 -35 0
44 74 0
-44 -74 0
108 135 0
-108 -135 0
68 49 0
-68 -49 0
66 90 0
-66 -90 0
57 94 0
-57 -94 0
120 43 0
-120 -43 0
120 21 0
-120 -21 0
122 76 0
-122 -76 0
117 135 0
-117 -135 0
96 9 0
-96 -9 0
63 81 0
-63 -81 0
87 41 0
-87 -41 0
55 76 0
-55 -76 0
131 74 0
-131 -74 0
52 19 0
-52 -19 0
83 47 0
-83 -47 0
22 54 0
-22 -54 0
33 49 0
-33 -49 0
114 106 0
-114 -106 0
82 81 0
-82 -81 0
104 102 0
-104 -102 0
84 42 0
-84 -42 0
77 60 0
-77 -60 0
24 82 0
-24 -82 0
120 56 0
-120 -56 0
64 78 0
-64 -78 0
66 27 0
-66 -27 0
28 70 0
-28 -70 0
120 75 0
-120 -75 0
102 4 0
-102 -4 0
105 86 0
-105 -86 0
129 138 0
-129 -138 0
105 22 0
-105 -22 0
138 99 0
-138 -99 0
104 9 0
-104 -9 0
101 58 0
-101 -58 0
52 121 0
-52 -121 0
102 58 0
-102 -58 0
55 63 0
-55 -63 0
73 67 0
-73 -67 0
1 40 0
-1 -40 0
98 87 0
-98 -87 0
120 41 0
-120 -41 0
104 138 0
-104 -138 0
62 95 0
-62 -95 0
133 43 0
-133 -43 0
88 16 0
-88 -16 0
129 94 0
-129 -94 0
49 99 0
-49 -99 0
29 109 0
-29 -109 0
47 140 0
-47 -140 0
23 16 0
-23 -16 0
21 78 0
-21 -78 0
124 140 0
-124 -140 0
103 85 0
-103 -85 0
131 61 0
-131 -61 0
127 22 0
-127 -22 0
56 62 0
-56 -62 0
49 47 0
-49 -47 0
103 19 0
-103 -19 0
79 124 0
-79 -124 0
57 118 0
-57 -118 0
41 126 0
-41 -126 0
129 61 0
-129 -61 0
72 89 0
-72 -89 0
32 122 0
-32 -122 0
64 125 0
-64 -125 0
29 75 0
-29 -75 0
104 52 0
-104 -52 0
49 43 0
-49 -43 0
113 60 0
-113 -60 0
101 84 0
-101 -84 0
98 106 0
-98 -106 0
68 4 0
-68 -4 0
111 54 0
-111 -54 0
103 34 0
-103 -34 0
122 9 0
-122 -9 0
117 22 0
-117 -22 0
32 86 0
-32 -86 0
102 137 0
-102 -137 0
45 7 0
-45 -7 0
133 51 0
-133 -51 0
114 67 0
-114 -67 0
10 118 0
-10 -118 0
10 50 0
-10 -50 0
103 11 0
-103 -11 0
28 126 0
-28 -126 0
104 39 0
-104 -39 0
22 66 0
-22 -66 0
98 43 0
-98 -43 0
6 135 0
-6 -135 0
14 8 0
-14 -8 0
69 83 0
-69 -83 0
5 123 0
-5 -123 0
6 59 0
-6 -59 0
114 61 0
-114 -61 0
43 94 0
-43 -94 0
56 107 0
-56 -107 0
57 67 0
-57 -67 0
131 66 0
-131 -66 0
45 91 0
-45 -91 0
117 2 0
-117 -2 0
18 63 0
-18 -63 0
56 82 0
-56 -82 0
60 99 0
-60 -99 0
128 98 0
-128 -98 0
104 15 0
-104 -15 0
37 87 0
-37 -87 0
88 106 0
-88 -106 0
50 130 0
-50 -130 0
80 8 0
-80 -8 0
33 1 0
-33 -1 0
109 96 0
-109 -96 0
30 53 0
-30 -53 0
14 38 0
-14 -38 0
77 41 0
-77 -41 0
95 61 0
-95 -61 0
13 96 0
-13 -96 0
33 137 0
-33 -137 0
113 21 0
-113 -21 0
34 79 0
-34 -79 0
120 94 0
-120 -94 0
131 88 0
-131 -88 0
127 125 0
-127 -125 0
98 34 0
-98 -34 0
47 79 0
-47 -79 0
120 111 0
-120 -111 0
37 67 0
-37 -67 0
5 95 0
-5 -95 0
130 3 0
-130 -3 0
127 65 0
-127 -65 0
116 65 0
-116 -65 0
48 38 0
-48 -38 0
105 126 0
-105 -126 0
24 106 0
-24 -106 0
31 11 0
-31 -11 0
133 17 0
-133 -17 0
6 64 0
-6 -64 0
107 104 0
-107 -104 0
68 137 0
-68 -137 0
83 64 0
-83 -64 0
10 102 0
-10 -102 0
5 34 0
-5 -34 0
23 11 0
-23 -11 0
135 54 0
-135 -54 0
72 107 0
-72 -107 0
132 3 0
-132 -3 0
88 25 0
-88 -25 0
88 50 0
-88 -50 0
10 78 0
-10 -78 0
68 19 0
-68 -19 0
60 93 0
-60 -93 0
140 100 0
-140 -100 0
24 19 0
-24 -19 0
67 125 0
-67 -125 0
85 65 0
-85 -65 0
33 61 0
-33 -61 0
71 19 0
-71 -19 0
135 110 0
-135 -110 0
10 110 0
-10 -110 0
133 108 0
-133 -108 0
104 100 0
-104 -100 0
48 15 0
-48 -15 0
73 78 0
-73 -78 0
30 79 0
-30 -79 0
65 53 0
-65 -53 0
43 91 0
-43 -91 0
129 110 0
-129 -110 0
104 26 0
-104 -26 0
35 118 0
-35 -118 0
88 21 0
-88 -21 0
70 82 0
-70 -82 0
51 77 0
-51 -77 0
44 50 0
-44 -50 0
34 126 0
-34 -126 0
31 108 0
-31 -108 0
72 80 0
-72 -80 0
114 130 0
-114 -130 0
83 108 0
-83 -108 0
123 135 0
-123 -135 0
57 91 0
-57 -91 0
84 52 0
-84 -52 0
83 19 0
-83 -19 0
107 58 0
-107 -58 0
47 40 0
-47 -40 0
10 116 0
-10 -116 0
103 95 0
-103 -95 0
38 122 0
-38 -122 0
132 63 0
-132 -63 0
64 12 0
-64 -12 0
55 47 0
-55 -47 0
107 36 0
-107 -36 0
131 123 0
-131 -123 0
98 77 0
-98 -77 0
62 121 0
-62 -121 0
82 61 0
-82 -61 0
74 96 0
-74 -96 0
100 94 0
-100 -94 0
7 90 0
-7 -90 0
45 124 0
-45 -124 0
38 27 0
-38 -27 0
60 100 0
-60 -100 0
12 16 0
-12 -16 0
67 79 0
-67 -79 0
37 91 0
-37 -91 0
120 57 0
-120 -57 0
56 16 0
-56 -16 0
10 84 0
-10 -84 0
56 124 0
-56 -124 0
69 47 0
-69 -47 0
